31329
1 0 1 1 1 0 1 1 1 0 1 0 0 0 0 1 1 0 0 0 0 0 0 0 0 1 0 1 0 0 
27 6 2 6 2 25 2 27 27 27 4 6 10 15 6 7 15 10 27 6 27 16 2 2 10 6 27 8 6 2 6 4 4 15 27 6 8 8 2 15 7 8 6 4 8 4 3 2 6 10 6 6 0 2 8 6 25 8 7 25 4 0 7 8 8 25 0 6 7 25 7 25 4 8 10 10 10 2 8 6 10 0 8 25 4 10 6 2 27 25 27 6 25 25 0 3 6 7 0 6 15 15 25 7 4 0 4 27 15 3 6 4 27 7 7 8 27 7 6 8 8 7 15 4 6 15 2 25 4 0 6 2 25 10 15 8 3 8 6 10 25 27 7 25 25 3 2 15 27 25 0 0 10 0 8 7 2 15 3 3 3 27 10 0 3 27 15 4 15 15 15 8 6 10 4 0 0 10 4 10 2 15 0 6 25 8 7 3 15 2 2 15 6 4 7 7 7 15 10 6 